RT is False
Default write of storage_offers_DA.csv just to have a file (but constraint should be inactive)
Reading model...
...model read.
creating competitive generators file...
...competitive generators recorded.
Loading data...
.. day-ahead data with real-time VRE data read.
Compiling instance...
...instance created.
Creating Offer Mitigation (model will solve as dispatch if TRUE)...
Solving...

Welcome to IBM(R) ILOG(R) CPLEX(R) Interactive Optimizer 12.9.0.0
  with Simplex, Mixed Integer & Barrier Optimizers
5725-A06 5725-A29 5724-Y48 5724-Y49 5724-Y54 5724-Y55 5655-Y21
Copyright IBM Corp. 1988, 2019.  All Rights Reserved.

Type 'help' for a list of available commands.
Type 'help' followed by a command name for more
information on commands.

CPLEX> Logfile 'cplex.log' closed.
Logfile 'C:\Users\llavin\Desktop\test919\logs\tmpmalfxfs8.cplex.log' open.
CPLEX> New value for parallel optimization mode: -1
CPLEX> New value for mixed integer optimality gap tolerance: 0.01
CPLEX> New value for integrality tolerance: 1e-09
CPLEX> New value for feasibility tolerance: 0.01
CPLEX> New value for deterministic time limit in ticks: 75000
CPLEX> Problem 'C:\Users\llavin\Desktop\test919\logs\tmpi0oczl8g.pyomo.lp' read.
Read time = 0.06 sec. (3.04 ticks)
CPLEX> Problem name         : C:\Users\llavin\Desktop\test919\logs\tmpi0oczl8g.pyomo.lp
Objective sense      : Minimize
Variables            :   26081  [Nneg: 1,  Box: 21616,  Free: 4464]
Objective nonzeros   :    2496
Linear constraints   :   27515  [Less: 14006,  Greater: 4416,  Equal: 9093]
  Nonzeros           :   89219
  RHS nonzeros       :   12275

Variables            : Min LB: -5000.000        Max UB: 1000000.       
Objective nonzeros   : Min   : 15.73158         Max   : 124.0997       
Linear constraints   :
  Nonzeros           : Min   : 0.8500000        Max   : 3000.000       
  RHS nonzeros       : Min   : 0.04166667       Max   : 5000.000       
CPLEX> CPXPARAM_Parallel                                -1
CPXPARAM_Simplex_Tolerances_Feasibility          0.01
CPXPARAM_DetTimeLimit                            75000
CPXPARAM_MIP_Tolerances_MIPGap                   0.01
CPXPARAM_MIP_Tolerances_Integrality              1.0000000000000001e-09
Parallel mode: opportunistic, using up to 32 threads for concurrent optimization.
Tried aggregator 1 time.
LP Presolve eliminated 21377 rows and 15485 columns.
Aggregator did 744 substitutions.
Reduced LP has 5394 rows, 9852 columns, and 31799 nonzeros.
Presolve time = 0.06 sec. (30.21 ticks)
Symmetry aggregator did 5565 additional substitutions.

Iteration log . . .
Iteration:     1   Dual objective     =             0.000000
Perturbation started.
Iteration:   101   Dual objective     =             0.000000
Iteration:   339   Dual objective     =             1.326469
Iteration:   589   Dual objective     =             1.877420
Iteration:   854   Dual objective     =             2.015368
Iteration:  1066   Dual objective     =             2.130701
Iteration:  1343   Dual objective     =             2.176390
Iteration:  1593   Dual objective     =             2.206440
Iteration:  1817   Dual objective     =             2.228297
Iteration:  2021   Dual objective     =             2.253472
Iteration:  2208   Dual objective     =         17774.900181
Iteration:  2437   Dual objective     =         43554.583176
Iteration:  2751   Dual objective     =         47799.270241
Removing perturbation.
Dual superbasis not built.
Using devex.

Primal simplex solved model.


Primal simplex - Optimal:  Objective =  4.9512482838e+04
Solution time =    0.16 sec.  Iterations = 1558 (1075)
Deterministic time = 77.40 ticks  (496.13 ticks/sec)

CPLEX> Solution written to file 'C:\Users\llavin\Desktop\test919\logs\tmp0v403cxa.cplex.sol'.
CPLEX> Exporting results... 
...storage offer mitigation file created
Converting model to MPEC...
...converted
NOTE: initial MIP solve with only storage competitive to get feasible solution
Solving...

Welcome to IBM(R) ILOG(R) CPLEX(R) Interactive Optimizer 12.9.0.0
  with Simplex, Mixed Integer & Barrier Optimizers
5725-A06 5725-A29 5724-Y48 5724-Y49 5724-Y54 5724-Y55 5655-Y21
Copyright IBM Corp. 1988, 2019.  All Rights Reserved.

Type 'help' for a list of available commands.
Type 'help' followed by a command name for more
information on commands.

CPLEX> Logfile 'cplex.log' closed.
Logfile 'C:\Users\llavin\Desktop\test919\logs\tmpc6zr3ucw.cplex.log' open.
CPLEX> New value for parallel optimization mode: -1
CPLEX> New value for mixed integer optimality gap tolerance: 0.01
CPLEX> New value for integrality tolerance: 1e-09
CPLEX> New value for feasibility tolerance: 0.01
CPLEX> New value for deterministic time limit in ticks: 75000
CPLEX> Problem 'C:\Users\llavin\Desktop\test919\logs\tmpp2wtb6e5.pyomo.lp' read.
Read time = 0.23 sec. (14.78 ticks)
CPLEX> Problem name         : C:\Users\llavin\Desktop\test919\logs\tmpp2wtb6e5.pyomo.lp
Objective sense      : Maximize
Variables            :   53805  [Nneg: 1,  Box: 22000,  Free: 4464,
                                 Binary: 27340]
Objective nonzeros   :    9033
Linear constraints   :  123205  [Less: 41346,  Greater: 59096,  Equal: 22763]
  Nonzeros           :  291757
  RHS nonzeros       :   67495

Variables            : Min LB: -5000.000        Max UB: 1000000.       
Objective nonzeros   : Min   : 0.04166667       Max   : 2500.000       
Linear constraints   :
  Nonzeros           : Min   : 0.04166667       Max   : 1000000.       
  RHS nonzeros       : Min   : 0.04166667       Max   : 1000000.       
CPLEX> CPXPARAM_Parallel                                -1
CPXPARAM_Simplex_Tolerances_Feasibility          0.01
CPXPARAM_DetTimeLimit                            75000
CPXPARAM_MIP_Tolerances_MIPGap                   0.01
CPXPARAM_MIP_Tolerances_Integrality              1.0000000000000001e-09
Tried aggregator 3 times.
MIP Presolve eliminated 88621 rows and 18949 columns.
MIP Presolve added 3382 rows and 0 columns.
MIP Presolve modified 24882 coefficients.
Aggregator did 12987 substitutions.
Reduced MIP has 24979 rows, 21317 columns, and 71228 nonzeros.
Reduced MIP has 8427 binaries, 0 generals, 0 SOSs, and 0 indicators.
Presolve time = 0.30 sec. (173.48 ticks)
Probing fixed 381 vars, tightened 2890 bounds.
Probing time = 1.23 sec. (898.83 ticks)
Tried aggregator 2 times.
MIP Presolve eliminated 862 rows and 762 columns.
MIP Presolve modified 2217 coefficients.
Aggregator did 37 substitutions.
Reduced MIP has 24080 rows, 20518 columns, and 68631 nonzeros.
Reduced MIP has 8046 binaries, 0 generals, 0 SOSs, and 0 indicators.
Presolve time = 0.11 sec. (67.44 ticks)
Probing time = 0.05 sec. (15.90 ticks)
Clique table members: 6431.
MIP emphasis: balance optimality and feasibility.
MIP search method: dynamic search.
Parallel mode: opportunistic, using up to 32 threads.
Root relaxation solution time = 0.45 sec. (537.80 ticks)

        Nodes                                         Cuts/
   Node  Left     Objective  IInf  Best Integer    Best Bound    ItCnt     Gap

      0     0        0.0000   681                      0.0000     6409         
*     0     0      integral     0        0.0000        0.0000     6415    0.00%
Elapsed time = 3.86 sec. (2873.87 ticks, tree = 0.01 MB, solutions = 1)

Root node processing (before b&c):
  Real time             =    3.88 sec. (2875.82 ticks)
Parallel b&c, 32 threads:
  Real time             =    0.00 sec. (0.00 ticks)
  Sync time (average)   =    0.00 sec.
  Wait time (average)   =    0.00 sec.
                          ------------
Total (root+branch&cut) =    3.88 sec. (2875.82 ticks)

Solution pool: 1 solution saved.

MIP - Integer optimal solution:  Objective =  5.2750692703e-10
Solution time =    3.91 sec.  Iterations = 6415  Nodes = 0
Deterministic time = 2875.97 ticks  (736.30 ticks/sec)

CPLEX> Incumbent solution written to file 'C:\Users\llavin\Desktop\test919\logs\tmppyrgvfci.cplex.sol'.
CPLEX> NOTE: no warmstart specified for MIP iteration, default behavior is true
NOTE: resolving with all competitive generators using storage-only solution to warmstart
Solving...

Welcome to IBM(R) ILOG(R) CPLEX(R) Interactive Optimizer 12.9.0.0
  with Simplex, Mixed Integer & Barrier Optimizers
5725-A06 5725-A29 5724-Y48 5724-Y49 5724-Y54 5724-Y55 5655-Y21
Copyright IBM Corp. 1988, 2019.  All Rights Reserved.

Type 'help' for a list of available commands.
Type 'help' followed by a command name for more
information on commands.

CPLEX> Logfile 'cplex.log' closed.
Logfile 'C:\Users\llavin\Desktop\test919\logs\tmp13oa7o8a.cplex.log' open.
CPLEX> New value for parallel optimization mode: -1
CPLEX> New value for mixed integer optimality gap tolerance: 0.01
CPLEX> New value for integrality tolerance: 1e-09
CPLEX> New value for feasibility tolerance: 0.01
CPLEX> New value for deterministic time limit in ticks: 75000
CPLEX> Problem 'C:\Users\llavin\Desktop\test919\logs\tmpdgm7fwh1.pyomo.lp' read.
Read time = 0.23 sec. (14.81 ticks)
CPLEX> MIP start file 'C:\Users\llavin\Desktop\test919\logs\tmpxd7qskuw.cplex.mst' read.
CPLEX> Problem name         : C:\Users\llavin\Desktop\test919\logs\tmpdgm7fwh1.pyomo.lp
Objective sense      : Maximize
Variables            :   54525  [Nneg: 1,  Box: 22720,  Free: 4464,
                                 Binary: 27340]
Objective nonzeros   :    9729
Linear constraints   :  123205  [Less: 41346,  Greater: 59096,  Equal: 22763]
  Nonzeros           :  291757
  RHS nonzeros       :   67495

Variables            : Min LB: -5000.000        Max UB: 1000000.       
Objective nonzeros   : Min   : 0.04166667       Max   : 2500.000       
Linear constraints   :
  Nonzeros           : Min   : 0.04166667       Max   : 1000000.       
  RHS nonzeros       : Min   : 0.04166667       Max   : 1000000.       
CPLEX> CPXPARAM_Parallel                                -1
CPXPARAM_Simplex_Tolerances_Feasibility          0.01
CPXPARAM_DetTimeLimit                            75000
CPXPARAM_MIP_Tolerances_MIPGap                   0.01
CPXPARAM_MIP_Tolerances_Integrality              1.0000000000000001e-09
Warning:  No solution found from 1 MIP starts.
Retaining values of one MIP start for possible repair.
Tried aggregator 3 times.
MIP Presolve eliminated 88621 rows and 19669 columns.
MIP Presolve added 3382 rows and 0 columns.
MIP Presolve modified 24882 coefficients.
Aggregator did 12987 substitutions.
Reduced MIP has 24979 rows, 21317 columns, and 71228 nonzeros.
Reduced MIP has 8427 binaries, 0 generals, 0 SOSs, and 0 indicators.
Presolve time = 0.30 sec. (173.84 ticks)
Probing fixed 381 vars, tightened 2890 bounds.
Probing time = 1.23 sec. (898.83 ticks)
Tried aggregator 2 times.
MIP Presolve eliminated 862 rows and 762 columns.
MIP Presolve modified 2217 coefficients.
Aggregator did 37 substitutions.
Reduced MIP has 24080 rows, 20518 columns, and 68631 nonzeros.
Reduced MIP has 8046 binaries, 0 generals, 0 SOSs, and 0 indicators.
Presolve time = 0.11 sec. (67.45 ticks)
Probing time = 0.05 sec. (15.90 ticks)
Clique table members: 6431.
MIP emphasis: balance optimality and feasibility.
MIP search method: dynamic search.
Parallel mode: opportunistic, using up to 32 threads.
Root relaxation solution time = 0.39 sec. (286.60 ticks)

        Nodes                                         Cuts/
   Node  Left     Objective  IInf  Best Integer    Best Bound    ItCnt     Gap

      0     0   151113.5096  1675                 151113.5096     6449         
      0     0   147403.0251   661                   Cuts: 685     6840         
      0     0   146777.9285   526                   Cuts: 360     7051         
      0     0   146731.5673   465                   Cuts: 146     7130         
      0     0   145278.3598   406                   Cuts: 121     7231         
      0     0   145034.7388   382                   Cuts: 103     7282         
      0     0   145016.5704   363                    Cuts: 68     7312         
      0     0   145016.5704   349                    Cuts: 74     7332         
      0     0   144966.6822   331                    Cuts: 69     7350         
      0     0   144966.6822   326                    Cuts: 42     7356         
      0     0   144966.6822   327                    Cuts: 38     7358         
Repair heuristic found nothing.
      0    22    infeasible                          Cuts: 39     8125         
Elapsed time = 11.55 sec. (6835.46 ticks, tree = 0.02 MB, solutions = 0)
    366    63    52481.0960   251                 134641.3690    13530         
    958   264    infeasible                       134641.3690    21218         
   1757   424    infeasible                       134641.3690    27003         
   2426   599    34400.1489   242                 127092.4998    39035         
   3177   811     4448.9035   175                 127092.4998    51029         
   3942   943      476.4191   176                 127092.4998    51786         
   4746  1318    18182.2737   167                 127092.4998    57591         
   5547  2200    10514.9895   116                 127092.4998    61659         
   6384  2547     1710.3075   153                 127092.4998    65073         
*  6942+ 2821                         7683.1534   127092.4998              --- 
Elapsed time = 25.56 sec. (9125.09 ticks, tree = 18.31 MB, solutions = 4)
*  8929  2711      integral     0    16777.9203   127092.4998    68590  657.50%
*  9090  2731      integral     0    18182.2737   127092.4998    68598  598.99%
*  9135  1028      integral     0    18182.2737    18182.2737    79751    0.00%

GUB cover cuts applied:  2
Clique cuts applied:  6
Cover cuts applied:  32
Implied bound cuts applied:  12
Flow cuts applied:  1132
Mixed integer rounding cuts applied:  143
Gomory fractional cuts applied:  99

Root node processing (before b&c):
  Real time             =   10.12 sec. (6830.60 ticks)
Parallel b&c, 32 threads:
  Real time             =   21.11 sec. (5755.45 ticks)
  Sync time (average)   =    0.83 sec.
  Wait time (average)   =    0.00 sec.
                          ------------
Total (root+branch&cut) =   31.23 sec. (12586.05 ticks)

Solution pool: 11 solutions saved.

MIP - Integer optimal solution:  Objective =  1.8182273695e+04
Solution time =   31.27 sec.  Iterations = 79751  Nodes = 9135
Deterministic time = 12586.21 ticks  (402.57 ticks/sec)

CPLEX> Incumbent solution written to file 'C:\Users\llavin\Desktop\test919\logs\tmp9yq7c7t2.cplex.sol'.
CPLEX> Exporting results... 
